p tw 50 602
e 0 2
e 0 4
e 0 8
e 0 10
e 0 11
e 0 14
e 0 17
e 0 18
e 0 20
e 0 23
e 0 28
e 0 29
e 0 30
e 0 32
e 0 33
e 0 35
e 0 37
e 0 38
e 0 41
e 0 42
e 0 43
e 0 44
e 0 45
e 1 2
e 1 4
e 1 6
e 1 8
e 1 9
e 1 12
e 1 13
e 1 14
e 1 15
e 1 17
e 1 18
e 1 19
e 1 20
e 1 24
e 1 25
e 1 26
e 1 27
e 1 29
e 1 30
e 1 31
e 1 32
e 1 34
e 1 37
e 1 42
e 1 43
e 1 44
e 1 45
e 1 46
e 1 49
e 2 3
e 2 4
e 2 6
e 2 7
e 2 8
e 2 10
e 2 11
e 2 12
e 2 13
e 2 15
e 2 16
e 2 17
e 2 19
e 2 23
e 2 26
e 2 27
e 2 33
e 2 36
e 2 40
e 2 45
e 2 47
e 3 4
e 3 5
e 3 6
e 3 7
e 3 8
e 3 9
e 3 12
e 3 16
e 3 19
e 3 20
e 3 23
e 3 28
e 3 29
e 3 30
e 3 31
e 3 32
e 3 33
e 3 36
e 3 40
e 3 41
e 3 42
e 3 44
e 3 45
e 3 46
e 3 47
e 4 6
e 4 11
e 4 14
e 4 15
e 4 16
e 4 19
e 4 20
e 4 21
e 4 22
e 4 25
e 4 28
e 4 30
e 4 33
e 4 34
e 4 41
e 4 42
e 4 44
e 4 47
e 4 49
e 5 6
e 5 10
e 5 13
e 5 14
e 5 16
e 5 17
e 5 23
e 5 26
e 5 28
e 5 29
e 5 30
e 5 31
e 5 33
e 5 38
e 5 39
e 5 40
e 5 41
e 5 42
e 5 44
e 5 45
e 5 47
e 5 48
e 6 7
e 6 9
e 6 10
e 6 11
e 6 12
e 6 13
e 6 15
e 6 18
e 6 21
e 6 24
e 6 25
e 6 27
e 6 28
e 6 30
e 6 31
e 6 34
e 6 39
e 6 40
e 6 43
e 6 45
e 6 47
e 6 48
e 6 49
e 7 9
e 7 12
e 7 14
e 7 16
e 7 19
e 7 22
e 7 23
e 7 24
e 7 26
e 7 27
e 7 30
e 7 32
e 7 33
e 7 34
e 7 35
e 7 38
e 7 39
e 7 40
e 7 41
e 7 46
e 7 47
e 7 48
e 7 49
e 8 9
e 8 11
e 8 13
e 8 14
e 8 15
e 8 16
e 8 17
e 8 18
e 8 19
e 8 21
e 8 22
e 8 23
e 8 30
e 8 37
e 8 38
e 8 40
e 8 42
e 8 44
e 8 45
e 8 47
e 8 49
e 9 11
e 9 15
e 9 17
e 9 18
e 9 19
e 9 20
e 9 21
e 9 22
e 9 28
e 9 30
e 9 32
e 9 33
e 9 37
e 9 42
e 9 45
e 10 11
e 10 12
e 10 13
e 10 14
e 10 15
e 10 18
e 10 20
e 10 22
e 10 23
e 10 24
e 10 29
e 10 36
e 10 38
e 10 40
e 10 41
e 10 42
e 10 43
e 10 44
e 10 45
e 10 46
e 10 48
e 10 49
e 11 12
e 11 13
e 11 18
e 11 20
e 11 22
e 11 24
e 11 25
e 11 26
e 11 28
e 11 29
e 11 30
e 11 31
e 11 36
e 11 41
e 11 42
e 11 47
e 11 49
e 12 13
e 12 14
e 12 15
e 12 16
e 12 20
e 12 24
e 12 25
e 12 26
e 12 27
e 12 29
e 12 32
e 12 33
e 12 35
e 12 37
e 12 38
e 12 39
e 12 40
e 12 41
e 12 43
e 12 44
e 12 45
e 12 47
e 12 48
e 12 49
e 13 16
e 13 19
e 13 21
e 13 26
e 13 27
e 13 28
e 13 30
e 13 32
e 13 33
e 13 36
e 13 37
e 13 41
e 13 43
e 13 44
e 13 45
e 13 46
e 13 48
e 14 16
e 14 20
e 14 26
e 14 28
e 14 29
e 14 31
e 14 32
e 14 33
e 14 34
e 14 35
e 14 38
e 14 48
e 15 24
e 15 29
e 15 31
e 15 32
e 15 34
e 15 36
e 15 37
e 15 39
e 15 40
e 15 45
e 16 20
e 16 21
e 16 22
e 16 24
e 16 26
e 16 27
e 16 28
e 16 29
e 16 31
e 16 32
e 16 34
e 16 39
e 16 40
e 16 42
e 16 46
e 16 48
e 16 49
e 17 18
e 17 19
e 17 21
e 17 22
e 17 24
e 17 25
e 17 26
e 17 27
e 17 28
e 17 29
e 17 30
e 17 32
e 17 33
e 17 36
e 17 38
e 17 42
e 17 44
e 17 47
e 17 48
e 18 20
e 18 22
e 18 28
e 18 32
e 18 34
e 18 37
e 18 39
e 18 40
e 18 41
e 18 45
e 18 48
e 18 49
e 19 22
e 19 23
e 19 24
e 19 25
e 19 26
e 19 28
e 19 29
e 19 31
e 19 33
e 19 36
e 19 37
e 19 41
e 19 42
e 19 44
e 19 45
e 19 48
e 20 24
e 20 28
e 20 30
e 20 32
e 20 35
e 20 37
e 20 40
e 20 43
e 20 45
e 20 46
e 20 49
e 21 22
e 21 23
e 21 28
e 21 29
e 21 30
e 21 31
e 21 33
e 21 36
e 21 37
e 21 38
e 21 41
e 21 43
e 21 44
e 21 48
e 22 23
e 22 24
e 22 26
e 22 28
e 22 30
e 22 31
e 22 32
e 22 33
e 22 34
e 22 35
e 22 41
e 22 42
e 22 43
e 22 44
e 22 45
e 22 47
e 22 49
e 23 25
e 23 29
e 23 30
e 23 31
e 23 33
e 23 34
e 23 35
e 23 40
e 23 41
e 23 43
e 23 44
e 23 45
e 23 47
e 23 48
e 23 49
e 24 29
e 24 32
e 24 35
e 24 36
e 24 41
e 24 45
e 25 27
e 25 29
e 25 30
e 25 34
e 25 36
e 25 37
e 25 40
e 25 42
e 25 43
e 25 44
e 25 45
e 25 47
e 25 49
e 26 27
e 26 28
e 26 32
e 26 34
e 26 35
e 26 36
e 26 39
e 26 43
e 26 46
e 26 49
e 27 28
e 27 29
e 27 31
e 27 32
e 27 33
e 27 34
e 27 36
e 27 37
e 27 38
e 27 39
e 27 40
e 27 41
e 27 47
e 28 32
e 28 34
e 28 35
e 28 38
e 28 40
e 28 41
e 28 43
e 28 44
e 28 48
e 28 49
e 29 30
e 29 33
e 29 34
e 29 36
e 29 37
e 29 42
e 29 45
e 29 46
e 29 47
e 29 49
e 30 35
e 30 36
e 30 37
e 30 38
e 30 39
e 30 41
e 30 44
e 30 45
e 30 46
e 30 48
e 30 49
e 31 33
e 31 34
e 31 35
e 31 36
e 31 37
e 31 40
e 32 33
e 32 34
e 32 39
e 32 40
e 32 43
e 32 44
e 32 45
e 32 46
e 32 48
e 33 35
e 33 36
e 33 37
e 33 43
e 33 44
e 33 49
e 34 35
e 34 36
e 34 39
e 34 40
e 34 41
e 34 43
e 34 44
e 34 45
e 34 46
e 34 48
e 35 36
e 35 37
e 35 38
e 35 40
e 35 42
e 35 44
e 35 46
e 35 49
e 36 37
e 36 43
e 36 46
e 36 47
e 36 48
e 36 49
e 37 39
e 37 40
e 37 41
e 37 42
e 37 44
e 38 42
e 38 43
e 38 45
e 39 40
e 39 43
e 39 45
e 39 46
e 39 47
e 39 48
e 39 49
e 40 41
e 40 43
e 40 45
e 40 49
e 41 42
e 41 43
e 41 44
e 41 45
e 41 48
e 41 49
e 42 43
e 42 46
e 42 48
e 42 49
e 43 44
e 43 45
e 43 46
e 43 47
e 43 49
e 44 48
e 45 46
e 45 48
e 46 48
e 47 48
e 48 49
